c
c start with comments
c
p cnf 24 17
-21 -7 -8 0
21 17 -2 -5 0
-12 -2 -22 -21 0
19 12 0
-18 -9 0
-1 10 16 24 0
-20 -11 0
4 13 18 -22 -7 0
-17 6 0
-13 17 16 2 0
-16 -6 -19 0
23 4 7 7 -10 -12 0
-4 -16 17 9 0
11 15 0
-3 14 -5 0
-15 20 0
-24 22 23 17 10 0